(set-logic QF_S)

(declare-fun PCTEMP_LHS_1 () String)
(declare-fun PCTEMP_LHS_2 () String)
(declare-fun PCTEMP_LHS_3 () String)
(declare-fun PCTEMP_LHS_4 () String)
(declare-fun PCTEMP_LHS_5 () String)
(declare-fun PCTEMP_LHS_6 () String)
(declare-fun T_7 () String)
(declare-fun T_8 () String)

(assert (not (str.in.re PCTEMP_LHS_1 (re.++ (str.to.re "%") (str.to.re "h") (str.to.re "o") (str.to.re "s") (str.to.re "t") (str.to.re "%")))))
(assert (= PCTEMP_LHS_1 "http://www.ig.gmodules.com/gadgets/proxy/refresh=%refresh%&container=%container%%rewriteMime%&gadget=%gadget%/%rawurl%"))
(assert (not (str.in.re PCTEMP_LHS_2 (re.++ (str.to.re "%") (str.to.re "r") (str.to.re "a") (str.to.re "w") (str.to.re "u") (str.to.re "r") (str.to.re "l") (str.to.re "%")))))
(assert (= PCTEMP_LHS_2 PCTEMP_LHS_1))
(assert (not (str.in.re PCTEMP_LHS_3 (re.++ (str.to.re "%") (str.to.re "r") (str.to.re "e") (str.to.re "f") (str.to.re "r") (str.to.re "e") (str.to.re "s") (str.to.re "h") (str.to.re "%")))))
(assert (= PCTEMP_LHS_3 PCTEMP_LHS_2))
(assert (not (str.in.re PCTEMP_LHS_4 (re.++ (str.to.re "%") (str.to.re "g") (str.to.re "a") (str.to.re "d") (str.to.re "g") (str.to.re "e") (str.to.re "t") (str.to.re "%")))))
(assert (= PCTEMP_LHS_4 PCTEMP_LHS_3))
(assert (not (str.in.re PCTEMP_LHS_5 (re.++ (str.to.re "%") (str.to.re "c") (str.to.re "o") (str.to.re "n") (str.to.re "t") (str.to.re "a") (str.to.re "i") (str.to.re "n") (str.to.re "e") (str.to.re "r") (str.to.re "%")))))
(assert (= PCTEMP_LHS_5 PCTEMP_LHS_4))
(assert (not (str.in.re PCTEMP_LHS_6 (re.++ (str.to.re "%") (str.to.re "r") (str.to.re "e") (str.to.re "w") (str.to.re "r") (str.to.re "i") (str.to.re "t") (str.to.re "e") (str.to.re "M") (str.to.re "i") (str.to.re "m") (str.to.re "e") (str.to.re "%")))))
(assert (= PCTEMP_LHS_6 PCTEMP_LHS_5))
(assert (= T_7 (str.++ "<a" PCTEMP_LHS_6)))
(assert (= T_8 (str.++ T_7 "\\\"")))

(check-sat)

